 200 73 
 58 85 36 67 71 96 89 23 52 22 84 20 
 58 95 12 60 14 87 15 60 16 27 57 58 
 42 63 50 42 2 23 11 38 23 57 81 41 
 85 82 74 49 61 56 13 92 86 89 86 61 
 6 20 92 76 67 80 27 87 58 20 97 89 
 98 47 59 92 6 13 11 55 35 22 8 87 
 95 
 39 
 4 7 9 11 14 17 19 20 25 26 27 28 
 30 31 34 36 37 39 40 41 44 47 49 53 
 54 57 58 59 60 62 63 64 65 67 68 69 
 70 71 72 
 69 
 1 2 3 4 5 6 7 8 9 10 11 12 
 13 15 16 17 18 19 20 21 22 23 24 25 
 26 27 29 30 31 32 33 34 35 36 37 38 
 40 41 42 43 44 45 46 47 48 49 50 51 
 52 53 54 55 56 57 58 59 60 61 63 64 
 65 66 67 68 69 70 71 72 73 
 42 
 1 2 3 4 7 8 10 11 14 15 17 18 
 23 27 28 29 30 31 35 36 37 42 44 48 
 50 51 52 53 58 59 60 62 63 64 65 66 
 67 68 69 70 71 73 
 27 
 2 4 7 8 9 11 12 14 28 30 31 34 
 37 39 42 46 49 51 59 60 61 63 64 70 
 71 72 73 
 28 
 3 12 13 20 21 23 31 33 34 38 39 40 
 41 42 47 48 50 51 52 55 58 61 63 64 
 67 68 69 70 
 54 
 1 3 5 6 7 8 9 10 11 14 16 17 
 18 19 20 21 24 26 28 29 31 32 33 34 
 35 36 37 38 39 40 41 42 43 45 46 47 
 49 50 52 53 54 56 57 58 60 61 62 66 
 67 68 69 70 71 72 
 7 
 10 17 29 36 55 67 72 
 51 
 2 3 4 5 7 10 13 14 15 17 18 19 
 20 21 22 24 26 27 28 29 31 32 33 34 
 35 37 38 39 40 41 42 43 44 45 48 52 
 53 54 58 59 60 61 62 63 64 65 67 68 
 69 71 73 
 36 
 3 4 5 7 8 14 15 16 17 19 21 27 
 28 29 31 32 34 37 38 39 40 42 47 48 
 50 55 56 57 58 60 63 64 65 66 67 70 
 56 
 1 2 3 4 6 7 8 9 10 11 12 13 
 15 16 17 18 19 20 23 24 26 27 28 29 
 30 31 32 33 34 35 36 40 41 42 43 45 
 46 47 48 49 50 51 52 53 55 57 59 60 
 62 63 65 67 68 69 71 72 
 21 
 9 12 13 14 15 19 20 27 29 31 34 45 
 50 52 57 59 63 66 68 69 70 
 11 
 8 17 20 23 24 27 44 46 51 66 70 
 41 
 3 5 7 8 9 10 11 17 18 19 24 26 
 28 30 32 33 35 36 37 39 40 43 45 48 
 49 52 53 54 55 56 57 58 60 61 62 63 
 66 67 69 70 72 
 40 
 1 2 4 5 8 10 12 13 18 20 21 22 
 23 25 26 29 30 33 35 36 38 39 40 41 
 43 45 47 49 50 54 55 56 58 59 61 62 
 67 68 69 73 
 48 
 1 5 6 8 9 10 14 15 17 18 19 20 
 21 23 24 28 29 31 33 34 35 38 39 40 
 41 43 44 45 46 48 49 50 52 53 54 55 
 57 59 60 61 62 63 64 68 70 71 72 73 
 20 
 2 4 5 12 24 25 30 33 34 41 46 47 
 48 50 55 58 59 63 71 72 
 38 
 1 4 7 8 10 11 14 15 18 19 20 21 
 22 23 34 38 41 44 45 46 51 52 54 55 
 56 57 58 60 61 62 63 64 66 67 69 70 
 71 72 
 57 
 3 4 5 6 7 8 10 11 12 14 15 17 
 18 20 21 22 23 24 25 27 28 30 31 33 
 35 36 37 38 39 40 41 43 44 45 46 47 
 48 49 51 52 53 54 55 56 58 59 60 61 
 62 64 66 67 68 69 71 72 73 
 45 
 1 2 3 5 7 8 9 10 12 13 14 15 
 16 20 21 22 23 24 26 27 29 30 31 35 
 37 39 42 43 44 50 51 54 56 57 58 59 
 60 62 63 65 66 68 71 72 73 
 34 
 6 7 8 9 12 17 19 20 21 22 23 26 
 27 31 33 35 38 40 42 44 48 51 52 56 
 59 60 61 63 65 67 68 69 70 71 
 61 
 1 2 3 5 6 7 8 9 10 11 12 13 
 14 15 16 18 20 21 22 25 26 27 28 29 
 31 32 33 34 35 36 37 38 39 40 41 43 
 44 45 46 47 48 49 50 51 52 54 55 57 
 58 59 62 63 64 65 66 67 68 70 71 72 
 73 
 43 
 3 4 6 10 11 12 13 14 16 17 19 20 
 21 23 24 25 26 27 28 29 30 31 32 33 
 35 36 37 38 41 42 43 46 48 49 50 56 
 61 67 69 70 71 72 73 
 10 
 15 19 23 27 32 53 58 59 64 67 
 2 
 4 49 
 72 
 1 2 3 4 5 6 7 8 9 10 11 12 
 13 14 15 16 17 18 19 20 21 22 23 24 
 25 26 27 28 29 30 31 32 33 34 35 36 
 37 38 39 40 41 42 43 44 45 46 47 48 
 49 50 51 53 54 55 56 57 58 59 60 61 
 62 63 64 65 66 67 68 69 70 71 72 73 
 24 
 1 8 9 13 15 16 18 19 25 27 30 33 
 34 35 37 39 42 49 50 55 59 61 69 70 
 56 
 3 4 5 8 9 10 11 12 13 14 15 16 
 18 20 22 23 25 26 29 30 31 32 33 34 
 35 36 37 38 39 40 41 42 44 45 47 48 
 49 50 51 52 53 54 55 56 57 58 61 62 
 63 65 66 69 70 71 72 73 
 19 
 2 5 7 10 15 26 31 35 38 43 48 53 
 55 58 59 60 61 69 71 
 10 
 6 9 12 18 29 36 43 47 52 68 
 64 
 1 2 3 5 7 8 9 10 11 12 13 14 
 15 16 17 18 19 20 21 22 24 25 26 27 
 28 29 30 31 32 33 34 35 36 37 38 39 
 40 41 42 43 44 45 46 47 49 50 51 52 
 55 56 57 58 59 60 61 62 64 65 66 67 
 68 71 72 73 
 27 
 1 6 7 11 14 16 19 20 25 31 33 34 
 36 37 43 48 49 50 59 60 61 62 65 66 
 71 72 73 
 49 
 5 8 9 10 12 13 14 15 16 19 20 21 
 23 24 25 26 27 29 31 32 33 35 36 37 
 38 39 40 41 43 44 46 47 48 51 52 54 
 55 56 57 60 61 62 63 64 66 69 70 71 
 72 
 62 
 1 2 3 4 5 6 7 8 10 11 12 13 
 14 15 16 17 18 19 20 23 24 26 27 28 
 29 30 31 32 33 35 36 37 39 40 41 42 
 43 45 46 47 48 49 50 51 52 53 54 55 
 56 57 58 60 61 62 64 65 66 68 69 70 
 72 73 
 18 
 1 6 11 14 15 17 18 19 20 21 24 28 
 33 36 44 49 54 58 
 7 
 11 12 34 40 52 56 58 
 42 
 3 4 5 6 8 12 14 15 16 17 19 20 
 23 24 26 27 28 31 32 33 34 35 37 41 
 43 45 47 49 52 53 54 57 59 61 62 63 
 64 65 68 69 71 73 
 64 
 1 2 3 4 5 6 8 9 10 11 12 13 
 14 15 16 18 20 21 22 23 25 26 27 28 
 29 30 31 32 33 34 35 36 37 38 40 41 
 43 44 45 46 47 48 49 50 51 52 53 54 
 55 57 58 59 61 62 63 64 65 66 67 68 
 69 71 72 73 
 36 
 1 3 5 8 9 11 12 14 15 16 17 18 
 20 23 25 26 27 29 31 36 38 45 46 47 
 48 50 56 59 60 62 63 64 65 68 70 73 
 35 
 2 8 11 12 13 15 18 19 20 21 22 23 
 27 34 35 37 38 39 41 42 43 44 46 47 
 48 49 51 56 57 60 61 63 64 65 73 
 53 
 2 4 5 6 7 8 10 11 12 14 16 17 
 18 19 20 21 22 25 28 29 30 33 35 36 
 37 38 39 40 41 42 43 44 47 48 51 52 
 53 54 55 56 57 58 59 60 62 65 66 67 
 68 69 70 71 72 
 34 
 1 4 5 6 7 11 12 14 15 16 17 20 
 22 23 25 29 33 35 36 42 45 47 48 49 
 50 54 61 64 65 67 68 70 72 73 
 17 
 3 7 9 11 12 20 23 24 38 39 50 52 
 57 58 59 64 70 
 73 
 1 2 3 4 5 6 7 8 9 10 11 12 
 13 14 15 16 17 18 19 20 21 22 23 24 
 25 26 27 28 29 30 31 32 33 34 35 36 
 37 38 39 40 41 42 43 44 45 46 47 48 
 49 50 51 52 53 54 55 56 57 58 59 60 
 61 62 63 64 65 66 67 68 69 70 71 72 
 73 
 50 
 2 3 5 6 7 9 10 11 13 15 16 19 
 21 22 23 24 26 27 28 29 30 32 33 34 
 36 37 38 39 43 45 46 47 50 51 52 53 
 56 57 58 59 60 61 62 64 66 67 68 69 
 71 72 
 45 
 1 2 3 8 9 11 12 13 17 18 20 25 
 26 33 34 35 36 37 38 39 41 42 43 45 
 46 48 49 50 54 56 57 58 59 60 61 62 
 63 64 65 66 67 69 70 71 73 
 19 
 2 3 4 5 9 10 16 28 34 37 39 43 
 45 52 58 59 64 68 70 
 30 
 1 3 10 12 13 15 19 20 21 23 24 26 
 27 32 36 37 39 40 42 43 46 49 54 57 
 58 59 63 64 70 73 
 72 
 1 2 3 4 5 6 7 8 9 10 11 12 
 13 14 15 16 17 18 19 20 21 22 23 24 
 25 26 27 28 29 30 31 32 33 34 35 36 
 37 38 39 40 41 42 43 44 45 46 47 48 
 49 50 51 52 53 54 55 56 57 58 59 60 
 61 62 63 64 65 66 67 68 69 70 72 73 
 73 
 1 2 3 4 5 6 7 8 9 10 11 12 
 13 14 15 16 17 18 19 20 21 22 23 24 
 25 26 27 28 29 30 31 32 33 34 35 36 
 37 38 39 40 41 42 43 44 45 46 47 48 
 49 50 51 52 53 54 55 56 57 58 59 60 
 61 62 63 64 65 66 67 68 69 70 71 72 
 73 
 44 
 2 5 6 9 10 12 15 16 17 18 19 20 
 22 25 26 27 30 33 34 36 37 39 40 41 
 42 43 46 47 48 49 50 52 55 56 58 60 
 61 62 63 64 67 71 72 73 
 25 
 1 3 6 10 13 14 17 18 20 23 27 37 
 43 46 51 53 57 58 61 62 63 64 65 66 
 72 
 21 
 2 3 5 6 10 11 14 24 28 40 43 44 
 47 48 49 54 56 62 66 71 73 
 7 
 10 12 16 24 44 54 55 
 8 
 2 26 34 40 47 54 64 71 
 36 
 3 6 12 15 16 17 20 21 22 28 29 31 
 32 34 36 37 38 42 43 44 46 48 49 50 
 52 54 56 61 62 63 65 66 67 68 71 73 
 10 
 20 25 30 32 33 37 46 66 70 72 
 24 
 1 4 8 12 19 20 21 23 25 30 33 35 
 37 39 41 49 50 53 54 61 62 69 71 73 
 72 
 1 2 3 4 5 6 7 8 9 10 11 12 
 13 14 15 16 17 18 19 20 21 22 23 24 
 25 26 27 28 29 30 31 32 33 34 35 36 
 37 38 39 40 41 42 43 44 45 46 47 48 
 49 50 52 53 54 55 56 57 58 59 60 61 
 62 63 64 65 66 67 68 69 70 71 72 73 
 23 
 4 5 7 14 15 18 20 21 22 24 28 29 
 35 37 42 43 45 46 47 53 60 68 71 
 58 
 1 2 3 4 5 7 8 10 11 12 14 16 
 17 18 19 20 21 23 24 25 27 28 29 30 
 31 32 33 34 35 36 37 39 40 41 42 43 
 44 45 46 48 51 52 53 54 55 58 60 61 
 62 63 66 67 68 69 70 71 72 73 
 45 
 4 5 6 7 9 10 12 14 15 17 18 20 
 21 22 23 24 27 29 31 33 34 36 37 38 
 40 41 42 44 45 46 48 49 50 52 53 54 
 56 59 60 61 62 64 69 70 71 
 18 
 7 8 15 16 23 28 29 30 33 35 40 44 
 47 52 54 58 60 69 
 34 
 2 4 6 9 11 13 15 17 20 21 24 25 
 26 27 34 35 37 38 39 40 46 48 50 51 
 56 57 58 61 62 63 64 65 67 73 
 60 
 1 2 3 4 5 9 10 11 12 13 14 16 
 17 20 21 22 23 24 26 27 28 29 30 31 
 33 34 35 37 38 39 42 43 44 45 46 47 
 48 49 50 51 52 53 54 55 57 58 59 60 
 61 62 63 64 66 67 68 69 70 71 72 73 
 62 
 1 2 5 6 8 9 10 11 12 13 14 15 
 16 17 18 19 20 21 22 23 24 25 26 27 
 28 29 30 32 33 34 35 37 39 40 41 42 
 43 44 47 49 50 51 52 53 54 55 56 57 
 58 60 61 62 63 64 65 66 67 68 69 70 
 71 73 
 27 
 1 2 6 7 13 14 18 21 24 27 28 29 
 30 32 33 39 42 46 53 56 57 60 61 62 
 66 70 72 
 21 
 3 7 9 20 26 28 34 36 41 49 52 55 
 56 57 59 60 65 67 70 72 73 
 69 
 1 2 3 4 5 6 7 8 9 11 12 15 
 16 18 19 20 21 22 23 24 25 26 27 28 
 29 30 31 32 33 34 35 36 37 38 39 40 
 41 42 43 44 45 46 47 48 49 50 51 52 
 53 54 55 56 57 58 59 60 61 62 63 64 
 65 66 67 68 69 70 71 72 73 
 32 
 1 3 4 8 9 10 15 16 17 18 20 23 
 32 33 34 35 36 37 38 40 42 43 44 47 
 49 50 51 57 62 66 68 70 
 5 
 11 19 45 50 60 
 15 
 1 14 23 28 30 33 34 37 42 44 45 51 
 57 70 72 
 4 
 31 38 48 65 
 55 
 1 2 3 5 6 8 9 11 12 14 15 16 
 17 18 19 20 22 24 25 26 27 28 29 30 
 32 33 34 36 37 38 42 43 46 47 48 49 
 50 52 53 54 55 57 58 59 60 61 62 65 
 66 67 68 69 70 71 72 
 60 
 1 3 4 5 6 9 11 12 13 15 16 17 
 18 19 20 21 22 23 25 26 27 28 29 30 
 31 33 34 35 36 37 38 39 40 42 43 44 
 45 46 47 49 50 51 52 53 54 56 57 58 
 59 61 62 63 64 65 67 68 69 70 72 73 
 32 
 1 5 8 10 11 12 14 17 19 20 22 24 
 28 31 32 33 34 37 39 40 42 44 46 47 
 51 53 56 57 65 66 67 69 
 64 
 1 2 3 4 5 6 7 9 11 12 13 14 
 15 16 17 18 19 20 21 22 23 25 26 27 
 28 29 30 31 33 34 35 36 38 40 41 42 
 43 44 45 47 48 49 50 51 52 53 54 55 
 56 57 58 59 60 62 64 65 66 67 68 69 
 70 71 72 73 
 73 
 1 2 3 4 5 6 7 8 9 10 11 12 
 13 14 15 16 17 18 19 20 21 22 23 24 
 25 26 27 28 29 30 31 32 33 34 35 36 
 37 38 39 40 41 42 43 44 45 46 47 48 
 49 50 51 52 53 54 55 56 57 58 59 60 
 61 62 63 64 65 66 67 68 69 70 71 72 
 73 
 29 
 3 4 7 9 13 14 18 19 21 25 32 33 
 34 35 36 38 41 43 44 50 55 56 57 60 
 61 62 63 65 71 
 71 
 1 2 3 4 6 7 8 9 10 11 12 13 
 14 15 16 17 18 19 20 21 22 23 24 25 
 26 27 28 29 30 31 33 34 35 36 37 38 
 39 40 41 42 43 44 45 46 47 48 49 50 
 51 52 53 54 55 56 57 58 59 60 61 62 
 63 64 65 66 67 68 69 70 71 72 73 
 39 
 1 2 3 7 9 11 12 14 15 16 21 22 
 23 24 25 26 27 28 33 39 41 42 43 44 
 45 49 50 55 59 61 62 63 64 65 67 69 
 70 72 73 
 38 
 1 3 6 9 11 13 14 16 19 22 23 24 
 27 28 29 30 32 33 34 37 42 43 44 45 
 48 50 51 52 55 57 58 59 63 64 66 68 
 69 70 
 42 
 2 3 6 8 9 13 14 15 16 18 20 21 
 22 23 24 25 26 27 28 33 37 38 40 41 
 42 44 45 48 50 53 54 55 56 60 62 63 
 65 66 68 71 72 73 
 10 
 6 21 23 24 28 39 46 58 60 64 
 70 
 1 2 3 4 5 6 7 8 10 11 12 13 
 14 15 16 17 18 19 20 21 22 23 24 25 
 26 27 28 29 30 31 32 33 34 35 36 37 
 38 39 40 41 42 43 44 45 46 47 48 49 
 50 51 52 53 54 55 56 57 58 59 60 61 
 62 64 65 66 67 68 69 70 72 73 
 65 
 1 2 3 4 5 6 8 9 10 11 12 13 
 14 15 16 17 18 19 21 22 23 25 26 27 
 28 29 30 31 32 34 35 36 37 38 39 40 
 41 42 43 44 45 46 47 48 49 50 51 52 
 53 54 55 56 57 59 60 61 62 63 64 65 
 66 67 68 71 73 
 32 
 4 6 7 8 9 10 20 23 25 26 28 29 
 31 33 34 36 37 39 40 41 47 48 49 50 
 52 53 54 55 58 60 65 73 
 44 
 1 9 11 12 15 16 17 20 21 22 23 24 
 25 26 27 28 31 32 33 37 38 39 41 44 
 45 46 51 52 53 54 55 57 58 60 61 62 
 64 65 66 67 68 69 71 73 
 72 
 1 2 3 4 5 6 7 8 9 10 11 12 
 13 14 15 16 17 18 19 20 21 22 23 24 
 25 26 27 28 29 30 31 32 33 34 35 36 
 37 39 40 41 42 43 44 45 46 47 48 49 
 50 51 52 53 54 55 56 57 58 59 60 61 
 62 63 64 65 66 67 68 69 70 71 72 73 
 16 
 5 9 11 13 17 31 32 40 46 48 56 58 
 60 61 63 65 
 59 
 1 2 3 4 5 7 8 9 10 11 12 13 
 14 15 16 17 18 19 20 21 22 23 24 26 
 27 28 29 30 31 32 33 34 36 37 38 40 
 41 42 45 46 47 49 50 51 52 54 56 58 
 59 60 61 62 63 66 67 69 71 72 73 
 7 
 4 9 18 38 58 64 65 
 54 
 1 2 4 5 6 7 8 10 11 12 13 15 
 19 23 26 27 30 31 32 33 35 36 38 39 
 40 41 42 43 44 45 46 47 48 49 50 51 
 52 53 54 56 57 58 59 60 61 62 63 64 
 65 66 69 70 71 72 
 71 
 1 2 3 4 5 6 7 8 9 10 11 12 
 13 14 15 16 17 18 19 20 22 23 24 25 
 26 27 28 29 30 31 32 33 34 35 37 38 
 39 40 41 42 43 44 45 46 47 48 49 50 
 51 52 53 54 55 56 57 58 59 60 61 62 
 63 64 65 66 67 68 69 70 71 72 73 
 55 
 1 3 4 6 7 8 9 10 11 12 14 15 
 16 17 18 19 21 22 23 25 26 27 28 29 
 30 31 32 34 36 38 39 41 43 44 45 46 
 47 49 50 51 52 59 60 61 62 63 64 65 
 66 67 68 69 70 71 73 
 40 
 1 4 6 8 9 13 15 16 17 18 20 21 
 22 26 27 28 30 34 36 37 38 39 40 41 
 43 44 46 47 48 49 50 53 54 55 57 58 
 62 67 68 69 
 63 
 1 2 4 5 6 8 9 10 11 12 13 14 
 15 16 17 18 19 20 21 22 23 24 25 26 
 27 29 30 31 32 33 34 35 36 37 38 40 
 41 42 43 44 45 48 50 51 52 53 54 55 
 56 57 58 59 60 61 63 65 66 68 69 70 
 71 72 73 
 18 
 1 3 5 7 12 15 20 21 27 28 30 43 
 44 47 48 57 59 64 
 52 
 1 2 4 6 7 10 11 12 13 15 16 18 
 19 20 21 22 23 24 25 27 28 29 31 32 
 33 34 35 36 37 38 39 40 42 43 44 46 
 47 48 49 50 53 54 56 57 58 61 62 63 
 64 67 68 73 
 64 
 1 2 3 4 5 7 8 9 11 12 13 14 
 15 16 17 18 19 21 22 23 24 26 27 28 
 29 30 31 32 33 34 35 36 37 38 39 40 
 41 42 43 44 45 46 48 49 50 51 52 53 
 54 55 56 57 58 60 61 62 65 66 68 69 
 70 71 72 73 
 8 
 2 10 11 34 41 56 58 61 
 68 
 1 3 4 5 6 7 8 9 10 11 12 13 
 14 15 16 18 19 20 21 22 23 24 25 26 
 27 28 29 30 31 33 34 35 36 37 38 39 
 40 41 42 43 44 45 46 47 48 49 50 51 
 52 53 54 55 56 57 58 60 61 63 64 65 
 66 67 68 69 70 71 72 73 
 51 
 1 2 3 4 5 7 9 10 13 14 15 17 
 18 19 20 21 23 25 28 29 30 31 32 33 
 34 35 36 37 39 40 41 42 43 45 46 47 
 51 52 54 55 56 58 59 61 62 63 65 67 
 70 72 73 
 46 
 2 3 4 8 10 11 12 14 15 16 17 18 
 20 21 23 25 27 29 32 33 36 38 39 40 
 42 43 44 45 46 47 48 49 52 53 55 56 
 57 61 63 64 66 67 68 69 72 73 
 73 
 1 2 3 4 5 6 7 8 9 10 11 12 
 13 14 15 16 17 18 19 20 21 22 23 24 
 25 26 27 28 29 30 31 32 33 34 35 36 
 37 38 39 40 41 42 43 44 45 46 47 48 
 49 50 51 52 53 54 55 56 57 58 59 60 
 61 62 63 64 65 66 67 68 69 70 71 72 
 73 
 48 
 2 3 4 5 7 8 11 12 13 17 18 19 
 20 21 22 23 24 27 28 29 30 31 32 33 
 36 41 44 45 46 47 48 50 51 53 54 55 
 57 59 60 61 62 64 65 66 68 69 72 73 
 44 
 3 5 6 7 8 9 10 11 12 13 17 18 
 19 22 23 26 27 28 32 34 35 37 38 40 
 41 43 44 46 48 49 50 51 53 56 57 58 
 60 61 63 66 67 69 70 73 
 28 
 1 2 3 5 7 9 16 18 21 23 31 32 
 36 37 39 40 41 43 44 46 48 51 53 54 
 56 62 66 72 
 24 
 3 5 9 10 12 20 21 27 29 32 33 35 
 45 48 51 52 55 57 60 63 66 67 70 71 
 39 
 7 8 10 11 12 13 14 18 19 20 21 23 
 26 27 28 31 32 33 34 35 38 39 40 42 
 43 45 48 49 51 53 56 60 61 62 65 66 
 68 70 72 
 35 
 3 4 7 8 16 18 25 26 27 28 29 30 
 31 32 33 34 35 42 44 46 48 49 51 52 
 53 54 60 63 65 68 69 70 71 72 73 
 52 
 1 2 3 4 5 6 7 8 9 12 14 15 
 16 17 18 19 20 21 22 23 24 25 26 29 
 30 32 33 34 35 36 37 38 39 40 42 44 
 46 48 50 52 53 54 55 57 58 59 61 65 
 68 70 71 73 
 40 
 4 5 9 12 14 15 19 20 21 22 23 25 
 26 28 29 30 32 33 35 36 39 40 41 50 
 51 52 54 56 58 59 60 62 63 64 66 67 
 68 69 72 73 
 44 
 1 3 4 8 9 10 13 15 16 18 19 23 
 25 26 27 28 29 30 33 34 35 36 37 39 
 41 44 47 49 50 51 52 53 54 58 59 60 
 61 62 63 64 65 66 72 73 
 20 
 2 5 8 9 17 24 27 34 37 39 43 54 
 56 57 58 61 64 67 71 72 
 44 
 1 3 4 5 7 8 9 11 12 13 14 15 
 17 20 24 25 26 28 32 33 34 35 36 39 
 41 42 44 45 49 51 52 53 55 56 62 63 
 64 65 66 68 69 71 72 73 
 52 
 1 2 3 5 6 7 9 10 11 12 14 15 
 16 17 23 24 27 29 30 31 32 33 34 35 
 37 38 39 41 42 43 46 47 49 50 51 52 
 53 54 56 57 58 59 61 62 63 64 66 67 
 68 69 71 72 
 15 
 8 9 12 16 25 28 39 43 46 47 49 56 
 65 68 73 
 40 
 1 2 3 6 7 8 9 13 14 15 17 19 
 21 22 25 26 27 32 33 34 36 37 38 39 
 40 44 45 46 48 49 51 53 54 56 58 64 
 69 70 71 73 
 41 
 1 3 5 6 7 11 12 13 14 17 19 20 
 25 27 28 30 31 32 33 36 38 39 41 42 
 49 50 51 52 53 57 58 59 60 62 63 66 
 67 68 69 70 73 
 70 
 1 2 3 4 5 6 7 8 9 10 11 12 
 13 14 15 16 17 18 19 20 21 22 23 24 
 26 27 29 30 32 33 34 35 36 37 38 39 
 40 41 42 43 44 45 46 47 48 49 50 51 
 52 53 54 55 56 57 58 59 60 61 62 63 
 64 65 66 67 68 69 70 71 72 73 
 21 
 6 13 15 16 17 24 28 30 33 36 42 45 
 46 55 56 57 58 60 63 64 71 
 27 
 2 3 6 8 10 14 17 21 24 37 41 43 
 48 49 50 52 53 54 56 60 62 64 66 70 
 71 72 73 
 32 
 1 5 6 8 9 12 13 14 24 25 26 29 
 30 33 34 38 39 41 42 43 48 50 52 53 
 55 56 57 59 67 69 71 72 
 65 
 1 2 3 4 5 6 7 8 9 10 11 12 
 13 14 15 16 17 18 19 20 21 22 23 24 
 25 28 29 33 34 35 36 37 38 39 40 41 
 42 43 44 45 46 47 48 49 50 51 52 53 
 54 55 56 57 58 61 62 63 64 65 66 67 
 68 69 70 71 73 
 71 
 1 2 3 4 5 6 7 8 9 10 11 12 
 13 14 15 16 17 19 20 21 22 23 24 25 
 26 28 29 30 31 32 33 34 35 36 37 38 
 39 40 41 42 43 44 45 46 47 48 49 50 
 51 52 53 54 55 56 57 58 59 60 61 62 
 63 64 65 66 67 68 69 70 71 72 73 
 70 
 1 2 3 4 5 6 7 8 10 11 12 13 
 14 15 16 17 18 19 20 21 22 23 24 25 
 26 27 28 29 30 31 32 33 34 35 36 37 
 38 40 41 42 43 44 45 46 47 49 50 51 
 52 53 54 55 56 57 58 59 60 61 62 63 
 64 65 66 67 68 69 70 71 72 73 
 23 
 2 7 9 14 22 25 28 29 36 40 41 42 
 43 45 46 51 58 59 62 70 71 72 73 
 63 
 1 2 3 4 5 6 7 8 9 10 11 12 
 13 14 15 16 17 18 19 20 21 22 24 25 
 26 27 28 29 30 31 32 34 37 38 39 40 
 42 43 44 45 46 47 48 49 50 52 53 54 
 55 56 57 59 60 62 63 64 65 66 68 70 
 71 72 73 
 13 
 1 5 7 9 13 17 20 39 45 62 63 64 
 71 
 41 
 2 5 8 9 10 13 17 18 19 20 21 22 
 25 26 27 30 33 34 36 37 40 41 48 49 
 50 51 52 56 57 58 59 60 61 62 64 65 
 66 67 70 72 73 
 39 
 1 4 7 11 13 15 17 19 21 23 24 25 
 29 30 31 32 35 36 37 41 43 44 46 47 
 49 50 51 53 54 55 57 62 63 64 67 68 
 71 72 73 
 55 
 1 2 4 5 6 10 11 12 13 14 16 17 
 18 19 20 22 24 25 26 27 29 30 31 33 
 34 35 36 37 38 40 42 43 44 45 46 48 
 49 50 52 53 54 55 57 58 59 60 63 64 
 65 68 69 70 71 72 73 
 63 
 1 2 3 4 5 6 7 8 9 11 12 13 
 14 15 16 17 18 19 21 22 23 24 25 26 
 27 30 31 32 33 34 36 37 38 39 41 42 
 43 44 45 46 47 48 49 50 51 52 53 54 
 55 57 59 60 62 63 64 65 66 67 68 69 
 70 71 73 
 71 
 1 2 3 4 5 6 7 8 9 10 11 12 
 13 14 15 16 17 18 19 20 21 22 23 24 
 25 26 27 28 29 30 31 32 34 35 36 37 
 38 40 41 42 43 44 45 46 47 48 49 50 
 51 52 53 54 55 56 57 58 59 60 61 62 
 63 64 65 66 67 68 69 70 71 72 73 
 38 
 3 7 8 11 14 15 19 21 22 26 27 29 
 32 33 34 35 36 37 40 41 42 44 45 46 
 47 48 49 52 55 56 60 61 63 64 66 67 
 68 72 
 44 
 1 2 3 4 6 7 9 10 11 13 14 15 
 16 18 19 20 23 24 25 26 28 34 35 36 
 38 39 41 47 48 53 54 57 58 59 61 62 
 63 64 66 68 69 70 72 73 
 42 
 1 2 3 5 7 9 13 14 16 18 19 23 
 24 25 26 28 29 32 33 34 37 38 42 45 
 46 47 49 50 52 54 55 56 57 58 59 62 
 63 67 69 71 72 73 
 40 
 2 5 7 8 9 12 13 15 17 18 19 21 
 22 25 26 27 29 34 35 37 38 39 40 41 
 46 47 51 52 53 54 55 56 57 59 63 64 
 67 68 69 70 
 22 
 6 8 12 17 20 23 26 28 32 33 35 36 
 41 44 46 49 54 57 62 65 66 67 
 49 
 1 2 3 4 5 7 9 10 13 14 16 18 
 19 20 22 23 24 25 26 27 30 31 32 34 
 35 36 37 39 40 42 43 44 47 48 50 52 
 53 54 55 57 60 61 62 65 66 68 69 71 
 72 
 40 
 1 2 4 6 7 9 11 12 13 15 18 19 
 23 24 25 26 27 28 29 32 36 39 40 42 
 45 48 50 52 53 57 58 59 60 62 64 65 
 68 69 72 73 
 34 
 1 5 10 13 14 15 16 19 20 21 22 23 
 24 25 26 27 29 30 32 36 37 39 42 43 
 46 48 49 50 53 58 62 63 65 68 
 36 
 1 2 4 6 7 12 15 16 18 19 21 22 
 25 29 30 33 35 36 37 38 43 44 45 47 
 48 49 51 52 53 56 59 60 61 62 69 73 
 16 
 3 8 12 23 24 31 40 42 43 46 47 48 
 61 63 67 71 
 58 
 1 2 3 4 5 6 8 9 11 12 13 14 
 15 18 19 20 21 22 23 27 28 29 30 33 
 34 36 37 38 40 41 42 43 45 46 47 48 
 49 50 51 52 53 54 55 56 57 58 59 61 
 62 63 64 65 66 69 70 71 72 73 
 9 
 16 30 33 37 38 57 62 66 67 
 40 
 1 2 3 5 6 9 10 12 13 15 16 18 
 19 20 25 26 27 28 30 31 33 37 41 42 
 43 45 51 52 53 54 56 58 61 62 64 66 
 68 70 72 73 
 44 
 1 3 4 5 7 9 12 13 16 19 20 22 
 24 26 27 28 29 32 33 34 36 39 41 42 
 43 44 45 46 48 51 52 53 55 57 58 59 
 63 65 66 67 69 70 72 73 
 68 
 1 2 3 4 5 6 7 8 9 10 11 12 
 13 14 15 16 17 18 19 20 21 22 23 24 
 25 26 27 28 29 30 31 32 33 34 35 36 
 37 38 40 41 42 45 46 47 48 49 50 51 
 52 53 54 55 56 57 58 59 60 62 63 64 
 65 66 67 69 70 71 72 73 
 59 
 1 2 3 5 7 8 10 11 12 13 14 15 
 16 17 18 19 20 21 22 23 25 28 29 30 
 31 32 33 34 36 37 38 39 41 42 43 44 
 45 46 47 48 49 51 52 55 56 57 58 59 
 61 62 63 64 65 66 67 68 71 72 73 
 41 
 2 3 5 6 7 8 12 14 15 18 22 25 
 27 28 30 35 36 37 38 40 41 42 44 46 
 47 48 49 50 53 54 56 58 59 60 62 64 
 65 66 68 70 72 
 25 
 2 8 11 13 14 15 19 22 25 27 30 31 
 34 43 44 49 50 52 54 56 57 61 66 68 
 73 
 35 
 1 7 10 11 12 13 15 16 18 19 20 22 
 24 28 32 33 34 35 36 43 44 45 46 47 
 48 51 52 60 61 63 67 69 70 72 73 
 66 
 1 2 3 4 5 6 7 8 10 12 13 14 
 15 16 18 19 20 21 22 24 25 26 27 29 
 30 31 32 34 35 36 37 38 39 40 41 42 
 43 44 45 46 47 48 49 50 51 52 53 54 
 55 56 57 58 59 60 61 63 64 65 66 67 
 68 69 70 71 72 73 
 12 
 3 8 13 14 28 31 34 36 56 62 68 73 
 73 
 1 2 3 4 5 6 7 8 9 10 11 12 
 13 14 15 16 17 18 19 20 21 22 23 24 
 25 26 27 28 29 30 31 32 33 34 35 36 
 37 38 39 40 41 42 43 44 45 46 47 48 
 49 50 51 52 53 54 55 56 57 58 59 60 
 61 62 63 64 65 66 67 68 69 70 71 72 
 73 
 55 
 1 2 3 6 7 10 11 12 13 14 16 17 
 18 19 20 21 22 23 24 25 26 27 28 29 
 31 32 33 34 35 36 37 39 41 43 44 45 
 47 49 50 51 52 54 55 56 57 58 59 60 
 61 62 65 67 70 71 72 
 28 
 2 3 4 5 6 8 12 16 20 21 25 26 
 28 31 32 34 35 41 43 44 46 48 50 51 
 55 61 67 69 
 12 
 21 22 32 33 36 37 46 51 54 63 66 67 
 37 
 1 2 6 8 11 12 13 15 16 17 18 19 
 21 22 23 25 26 30 34 35 36 39 40 43 
 45 50 51 53 54 58 59 61 65 69 70 71 
 73 
 15 
 2 3 5 8 12 13 15 31 37 40 52 55 
 58 61 64 
 70 
 1 2 3 4 5 6 7 8 9 10 11 12 
 13 14 15 16 17 18 19 20 21 22 24 25 
 26 27 28 29 31 32 33 34 35 36 37 38 
 39 40 41 42 43 44 45 47 48 49 50 51 
 52 53 54 55 56 57 58 59 60 61 62 63 
 64 65 66 67 68 69 70 71 72 73 
 61 
 1 2 3 4 5 6 7 9 10 11 12 13 
 14 15 16 19 21 23 25 27 28 29 30 31 
 32 33 34 35 36 37 38 39 40 41 42 43 
 47 48 50 51 52 53 54 55 56 57 58 59 
 60 61 62 63 64 65 66 67 68 69 70 71 
 73 
 60 
 1 3 4 5 6 7 8 9 11 12 15 16 
 17 18 19 20 21 23 24 25 26 27 28 29 
 30 31 33 34 36 37 38 39 40 41 42 43 
 44 45 47 48 49 50 51 52 53 54 55 56 
 57 58 59 60 61 62 63 64 65 66 69 72 
 52 
 1 3 4 5 7 8 10 11 12 13 14 15 
 16 17 18 20 21 23 24 27 28 31 34 35 
 36 37 38 39 40 43 45 46 48 49 50 51 
 52 53 55 56 57 59 60 61 62 63 64 65 
 66 70 71 72 
 61 
 2 3 5 6 7 8 11 12 13 14 15 16 
 17 18 19 20 21 22 23 24 25 26 27 28 
 30 31 32 34 35 36 38 39 40 41 42 43 
 44 45 46 47 48 49 51 52 54 55 56 57 
 58 60 61 62 64 65 66 67 68 69 71 72 
 73 
 11 
 3 5 8 9 21 26 29 31 52 53 71 
 48 
 1 2 3 4 5 6 8 9 10 11 12 14 
 16 17 19 22 23 24 25 26 28 30 31 32 
 35 37 38 39 40 41 42 43 44 45 46 48 
 51 52 53 59 61 62 65 66 68 70 71 72 
 3 
 2 8 26 
 46 
 1 3 6 7 8 9 10 11 12 14 15 17 
 18 19 20 22 23 24 27 30 32 33 34 35 
 36 39 41 44 45 47 49 50 55 58 59 61 
 62 63 65 66 67 69 70 71 72 73 
 41 
 2 6 7 8 10 12 14 15 16 17 19 23 
 24 26 29 31 32 36 39 40 41 42 43 44 
 45 46 47 49 51 52 54 55 56 59 61 63 
 68 69 71 72 73 
 66 
 1 2 4 5 7 8 9 10 11 12 13 14 
 15 16 17 18 19 20 22 23 24 25 26 27 
 28 29 31 32 33 34 36 37 38 39 40 41 
 42 44 45 46 47 48 49 50 52 53 54 55 
 56 57 58 59 60 61 62 63 64 65 66 67 
 68 69 70 71 72 73 
 36 
 2 5 6 7 8 9 10 11 14 17 20 21 
 23 24 30 31 36 39 44 46 47 48 49 50 
 52 54 55 56 57 58 63 66 67 68 69 72 
 8 
 4 9 12 13 31 47 61 71 
 28 
 16 17 19 21 22 25 29 30 31 33 35 38 
 39 42 43 45 50 54 55 57 59 61 62 64 
 66 67 68 71 
 70 
 1 2 3 4 5 6 7 8 9 10 11 12 
 13 14 15 16 17 19 20 21 22 23 24 25 
 26 27 28 29 30 31 32 33 34 35 36 37 
 38 39 40 41 42 43 44 45 46 47 48 49 
 50 51 52 53 54 55 56 57 59 60 61 62 
 63 65 66 67 68 69 70 71 72 73 
 26 
 1 2 8 13 15 17 19 23 28 30 31 41 
 43 45 46 48 49 50 53 54 55 56 59 67 
 71 72 
 38 
 2 4 9 10 11 13 14 15 18 19 20 21 
 23 24 26 28 29 31 33 39 42 43 48 49 
 51 52 53 54 55 56 58 59 60 65 69 71 
 72 73 
 54 
 1 2 3 4 5 8 9 11 12 14 15 19 
 20 21 22 23 24 25 26 27 28 29 30 31 
 32 33 36 38 39 42 45 46 47 48 49 50 
 51 53 54 55 56 57 58 59 60 61 62 63 
 65 66 68 70 72 73 
 15 
 15 18 23 25 29 32 35 38 43 48 54 57 
 62 66 67 
 55 
 3 4 5 6 8 9 10 11 12 13 15 16 
 17 19 20 22 23 25 26 28 29 31 32 34 
 36 37 38 42 43 44 46 48 49 50 51 52 
 54 55 56 57 58 59 60 61 62 63 65 66 
 67 68 69 70 71 72 73 
 68 
 1 2 3 4 5 6 7 8 9 10 11 12 
 13 14 15 16 17 18 19 20 21 22 23 24 
 25 26 27 28 29 30 31 33 34 35 36 37 
 38 39 40 41 42 43 44 45 46 47 48 50 
 51 52 53 54 55 56 58 59 60 61 63 64 
 65 66 67 68 69 70 71 72 
 26 
 2 7 9 10 13 19 20 22 24 27 37 40 
 41 42 44 47 54 57 60 62 63 64 65 67 
 70 73 
 22 
 2 3 4 6 14 18 20 23 24 27 29 31 
 32 34 37 40 41 47 53 54 57 62 
 15 
 1 4 11 14 18 20 24 30 36 39 50 55 
 60 65 71 
 27 
 1 2 8 9 11 13 16 17 19 20 21 23 
 24 29 30 31 32 34 36 39 42 49 51 55 
 59 63 67 
 36 
 1 3 4 5 8 12 13 14 15 19 23 24 
 25 26 27 29 31 32 33 35 36 37 39 43 
 48 49 50 55 56 57 59 60 62 65 66 72 
 3 
 19 38 69 
 67 
 1 2 3 4 5 6 7 9 10 11 12 14 
 15 16 17 18 19 20 22 23 24 25 26 27 
 28 29 31 32 33 34 35 36 37 38 39 40 
 41 42 43 45 46 48 49 50 51 52 53 54 
 55 56 57 58 59 60 61 62 63 64 65 66 
 67 68 69 70 71 72 73 
 71 
 1 2 3 4 5 6 7 8 9 10 11 12 
 13 14 15 16 17 18 19 20 21 22 23 24 
 25 26 27 28 29 30 31 32 33 34 35 36 
 37 38 39 40 42 43 44 45 46 47 48 49 
 50 51 52 53 54 55 56 57 58 59 60 61 
 62 63 64 66 67 68 69 70 71 72 73 
 25 
 6 9 10 13 14 18 22 27 28 29 30 33 
 34 35 38 40 43 46 50 53 58 60 64 66 
 70 
 33 
 2 3 4 7 8 9 10 11 14 21 22 24 
 25 29 30 31 33 38 40 43 45 46 47 48 
 55 58 63 65 66 68 69 70 71 
 4 
 2 13 19 66 
 4 
 10 17 30 33 
 22 
 1 4 5 6 9 15 23 31 32 35 36 40 
 42 44 47 51 55 59 60 61 67 68 
 9 
 20 30 39 46 55 67 70 71 72 
 23 
 1 2 8 13 15 18 28 31 37 38 43 46 
 51 52 53 56 58 64 65 68 71 72 73 
 5 
 20 27 55 66 72 
 60 
 2 3 4 5 6 8 9 10 12 13 14 15 
 16 17 20 21 22 23 25 26 27 28 29 30 
 31 33 34 36 37 38 39 40 43 44 45 46 
 47 48 49 50 51 52 53 55 57 58 59 60 
 61 62 63 64 65 66 67 69 70 71 72 73 
 24 
 1 3 7 9 11 12 14 18 22 32 36 37 
 38 39 40 45 51 54 59 60 61 62 68 73 
 